NAME: bb15_1.tsp
TYPE: TSP
DIMENSION: 15
EDGE_WEIGHT_TYPE: EUC_2D
NODE_COORD_SECTION
1 7 5
2 5 7
3 18 29
4 17 17
5 32 8
6 8 25
7 29 33
8 17 23
9 35 1
10 20 1
11 25 25
12 23 11
13 4 14
14 28 19
15 34 27
EOF
